NAME : ../File/prFile/tspFile/tsp_file28.tsp.437.tour
COMMENT : Length = 437
COMMENT : Found by LKH-3 [Keld Helsgaun] Wed Jun 14 17:47:18 2023
TYPE : TOUR
DIMENSION : 30
TOUR_SECTION
1
11
13
18
24
26
15
22
17
2
7
10
23
3
8
4
6
30
9
14
28
25
5
21
16
19
27
20
12
29
-1
EOF
